Minimize
  60,500 x_radio_ads + 50,000 x_social_media_ads
Subject To
  c1: 5,000 x_radio_ads + 9,150 x_social_media_ads <= 250,000
  c2: x_radio_ads >= 15
  c3: x_radio_ads <= 40
  c4: x_social_media_ads >= 35
End